50	100	100	100
19	31	1
14	9	14
34	6	27
5	11	2
5	31	18
31	11	26
25	9	1
15	29	11
33	20	9
17	18	32
31	14	5
25	10	21
33	23	1
14	8	13
34	24	19
8	29	29
1	23	31
27	29	13
8	11	11
21	15	24
14	13	22
22	18	13
31	14	13
9	17	24
29	14	26
6	26	28
29	22	22
31	1	31
1	22	28
6	28	8
24	33	29
32	32	20
21	33	23
13	27	8
26	14	3
28	4	15
18	17	1
15	5	26
32	34	11
2	10	25
1	29	7
11	33	3
13	18	10
14	17	33
29	27	20
33	31	8
31	12	13
16	20	30
23	23	14
15	25	4
